sat
(:elim-unconstrained  3
 :max-memory          18.52
 :memory              18.32
 :nlsat-arith-var     1
 :nlsat-atoms         3
 :nlsat-bool-var      1
 :nlsat-clauses       3
 :nlsat-propagations  3
 :nlsat-stages        2
 :num-allocs          79471
 :rlimit-count        5787
 :solve-eqs-elim-vars 1
 :solve-eqs-steps     1
 :time                0.01
 :total-time          0.02)
